\ Generated by MPModelProtoExporter
\   Name             : 
\   Format           : Free
\   Constraints      : 68
\   Variables        : 10
\     Binary         : 0
\     Integer        : 0
\     Continuous     : 10
Maximize
 Obj: -1 _1 -2 _2 +1 _0K_1 +1 _0MI_2 +1 _0MK_1_2 +1 _0T_2 
Subject to
 Mono_Ineq.__H(0K_1)____H(0K): -1 _0K +1 _0K_1  >= 0
 Mono_Ineq.__H(0K_1)____H(1): -1 _1 +1 _0K_1  >= 0
 Additivity_Ineq.__H(0K_1)____H(0K)___H(1): -1 _1 -1 _0K +1 _0K_1  <= 0
 Mono_Ineq.__H(0MI_2)____H(0MI): -1 _0MI +1 _0MI_2  >= 0
 Mono_Ineq.__H(0MI_2)____H(2): -1 _2 +1 _0MI_2  >= 0
 Additivity_Ineq.__H(0MI_2)____H(0MI)___H(2): -1 _2 -1 _0MI +1 _0MI_2  <= 0
 Mono_Ineq.__H(0MK_1_2)____H(0MK): -1 _0MK +1 _0MK_1_2  >= 0
 Mono_Ineq.__H(0MK_1_2)____H(2): -1 _2 +1 _0MK_1_2  >= 0
 Mono_Ineq.__H(0MK_1_2)____H(1): -1 _1 +1 _0MK_1_2  >= 0
 Additivity_Ineq.__H(0MK_1_2)____H(0MK)___H(2)___H(1): -1 _1 -1 _2 -1 _0MK +1 _0MK_1_2  <= 0
 Mono_Ineq.__H(0T_2)____H(0T): -1 _0T +1 _0T_2  >= 0
 Mono_Ineq.__H(0T_2)____H(2): -1 _2 +1 _0T_2  >= 0
 Additivity_Ineq.__H(0T_2)____H(0T)___H(2): -1 _2 -1 _0T +1 _0T_2  <= 0
 Statistics_Ineq._1__1___h(0K_1)___0___h(1)____1___log2(134170.0)_|_1_|_K.ID: +1 _0K_1  <= 17.0337
 Statistics_Ineq._2__2___h(0K_1)___1___h(1)____2___log2(366.29223305988893)_|_2_|_K.ID: -1 _1 +2 _0K_1  <= 17.0337
 Statistics_Ineq._3__3___h(0K_1)___2___h(1)____3___log2(51.19393035144834)_|_3_|_K.ID: -2 _1 +3 _0K_1  <= 17.0337
 Statistics_Ineq._4__4___h(0K_1)___3___h(1)____4___log2(19.138762579119085)_|_4_|_K.ID: -3 _1 +4 _0K_1  <= 17.0337
 Statistics_Ineq._5__5___h(0K_1)___4___h(1)____5___log2(10.605498428686793)_|_5_|_K.ID: -4 _1 +5 _0K_1  <= 17.0337
 Statistics_Ineq._6__6___h(0K_1)___5___h(1)____6___log2(7.154993385842389)_|_6_|_K.ID: -5 _1 +6 _0K_1  <= 17.0337
 Statistics_Ineq._7__7___h(0K_1)___6___h(1)____7___log2(5.401597291274521)_|_7_|_K.ID: -6 _1 +7 _0K_1  <= 17.0337
 Statistics_Ineq._8__8___h(0K_1)___7___h(1)____8___log2(4.374787146721436)_|_8_|_K.ID: -7 _1 +8 _0K_1  <= 17.0337
 Statistics_Ineq._9__9___h(0K_1)___8___h(1)____9___log2(3.713124327690797)_|_9_|_K.ID: -8 _1 +9 _0K_1  <= 17.0337
 Statistics_Ineq._10__10___h(0K_1)___9___h(1)____10___log2(3.2566084242178692)_|_10_|_K.ID: -9 _1 +10 _0K_1  <= 17.0337
 Statistics_Ineq._11__h(0K_1)___h(1)____log2(1.0)_|_inf_|_K.ID: -1 _1 +1 _0K_1  <= 0
 Statistics_Ineq._12__1___h(0MI_2)___0___h(2)____1___log2(8927314.0)_|_1_|_MI.MOVIE_ID: +1 _0MI_2  <= 23.0898
 Statistics_Ineq._13__2___h(0MI_2)___1___h(2)____2___log2(22868.47791174568)_|_2_|_MI.MOVIE_ID: -1 _2 +2 _0MI_2  <= 28.9621
 Statistics_Ineq._14__3___h(0MI_2)___2___h(2)____3___log2(5534.065831001275)_|_3_|_MI.MOVIE_ID: -2 _2 +3 _0MI_2  <= 37.3024
 Statistics_Ineq._15__4___h(0MI_2)___3___h(2)____4___log2(3539.633518378824)_|_4_|_MI.MOVIE_ID: -3 _2 +4 _0MI_2  <= 47.1575
 Statistics_Ineq._16__5___h(0MI_2)___4___h(2)____5___log2(3106.3040766980107)_|_5_|_MI.MOVIE_ID: -4 _2 +5 _0MI_2  <= 58.0049
 Statistics_Ineq._17__6___h(0MI_2)___5___h(2)____6___log2(2993.7440706421207)_|_6_|_MI.MOVIE_ID: -5 _2 +6 _0MI_2  <= 69.2864
 Statistics_Ineq._18__7___h(0MI_2)___6___h(2)____7___log2(2958.7564854889574)_|_7_|_MI.MOVIE_ID: -6 _2 +7 _0MI_2  <= 80.7154
 Statistics_Ineq._19__8___h(0MI_2)___7___h(2)____8___log2(2946.1084017705402)_|_8_|_MI.MOVIE_ID: -7 _2 +8 _0MI_2  <= 92.1968
 Statistics_Ineq._20__9___h(0MI_2)___8___h(2)____9___log2(2941.037811742483)_|_9_|_MI.MOVIE_ID: -8 _2 +9 _0MI_2  <= 103.699
 Statistics_Ineq._21__10___h(0MI_2)___9___h(2)____10___log2(2938.861369246534)_|_10_|_MI.MOVIE_ID: -9 _2 +10 _0MI_2  <= 115.21
 Statistics_Ineq._22__h(0MI_2)___h(2)____log2(2937.0)_|_inf_|_MI.MOVIE_ID: -1 _2 +1 _0MI_2  <= 11.5201
 Statistics_Ineq._23__1___h(0MK_1_2)___0___h(2)____1___log2(4523930.0)_|_1_|_MK.MOVIE_ID: +1 _0MK_1_2  <= 22.1091
 Statistics_Ineq._24__2___h(0MK_1_2)___1___h(2)____2___log2(16185.9873965106)_|_2_|_MK.MOVIE_ID: -1 _2 +2 _0MK_1_2  <= 27.9649
 Statistics_Ineq._25__3___h(0MK_1_2)___2___h(2)____3___log2(3343.8264818119123)_|_3_|_MK.MOVIE_ID: -2 _2 +3 _0MK_1_2  <= 35.1219
 Statistics_Ineq._26__4___h(0MK_1_2)___3___h(2)____4___log2(1671.5408115873324)_|_4_|_MK.MOVIE_ID: -3 _2 +4 _0MK_1_2  <= 42.8279
 Statistics_Ineq._27__5___h(0MK_1_2)___4___h(2)____5___log2(1148.4788492748567)_|_5_|_MK.MOVIE_ID: -4 _2 +5 _0MK_1_2  <= 50.8275
 Statistics_Ineq._28__6___h(0MK_1_2)___5___h(2)____6___log2(914.941738694339)_|_6_|_MK.MOVIE_ID: -5 _2 +6 _0MK_1_2  <= 59.0252
 Statistics_Ineq._29__7___h(0MK_1_2)___6___h(2)____7___log2(789.6812830724535)_|_7_|_MK.MOVIE_ID: -6 _2 +7 _0MK_1_2  <= 67.3759
 Statistics_Ineq._30__8___h(0MK_1_2)___7___h(2)____8___log2(714.8129944782834)_|_8_|_MK.MOVIE_ID: -7 _2 +8 _0MK_1_2  <= 75.8514
 Statistics_Ineq._31__9___h(0MK_1_2)___8___h(2)____9___log2(666.8052492847414)_|_9_|_MK.MOVIE_ID: -8 _2 +9 _0MK_1_2  <= 84.4301
 Statistics_Ineq._32__10___h(0MK_1_2)___9___h(2)____10___log2(634.4708714390166)_|_10_|_MK.MOVIE_ID: -9 _2 +10 _0MK_1_2  <= 93.0941
 Statistics_Ineq._33__h(0MK_1_2)___h(2)____log2(540.0)_|_inf_|_MK.MOVIE_ID: -1 _2 +1 _0MK_1_2  <= 9.07682
 Statistics_Ineq._34__1___h(0MK_1_2)___0___h(1)____1___log2(4523930.0)_|_1_|_MK.KEYWORD_ID: +1 _0MK_1_2  <= 22.1091
 Statistics_Ineq._35__2___h(0MK_1_2)___1___h(1)____2___log2(142540.5972767057)_|_2_|_MK.KEYWORD_ID: -1 _1 +2 _0MK_1_2  <= 34.242
 Statistics_Ineq._36__3___h(0MK_1_2)___2___h(1)____3___log2(91933.95257125433)_|_3_|_MK.KEYWORD_ID: -2 _1 +3 _0MK_1_2  <= 49.4649
 Statistics_Ineq._37__4___h(0MK_1_2)___3___h(1)____4___log2(82003.06320560009)_|_4_|_MK.KEYWORD_ID: -3 _1 +4 _0MK_1_2  <= 65.2936
 Statistics_Ineq._38__5___h(0MK_1_2)___4___h(1)____5___log2(78043.67590316865)_|_5_|_MK.KEYWORD_ID: -4 _1 +5 _0MK_1_2  <= 81.26
 Statistics_Ineq._39__6___h(0MK_1_2)___5___h(1)____6___log2(76018.0546797557)_|_6_|_MK.KEYWORD_ID: -5 _1 +6 _0MK_1_2  <= 97.2843
 Statistics_Ineq._40__7___h(0MK_1_2)___6___h(1)____7___log2(74849.51552507188)_|_7_|_MK.KEYWORD_ID: -6 _1 +7 _0MK_1_2  <= 113.342
 Statistics_Ineq._41__8___h(0MK_1_2)___7___h(1)____8___log2(74123.73792740938)_|_8_|_MK.KEYWORD_ID: -7 _1 +8 _0MK_1_2  <= 129.421
 Statistics_Ineq._42__9___h(0MK_1_2)___8___h(1)____9___log2(73649.49002095767)_|_9_|_MK.KEYWORD_ID: -8 _1 +9 _0MK_1_2  <= 145.515
 Statistics_Ineq._43__10___h(0MK_1_2)___9___h(1)____10___log2(73328.0635960675)_|_10_|_MK.KEYWORD_ID: -9 _1 +10 _0MK_1_2  <= 161.621
 Statistics_Ineq._44__h(0MK_1_2)___h(1)____log2(72496.0)_|_inf_|_MK.KEYWORD_ID: -1 _1 +1 _0MK_1_2  <= 16.1456
 Statistics_Ineq._45__1___h(0T_2)___0___h(2)____1___log2(524288.0)_|_1_|_T.ID: +1 _0T_2  <= 19
 Statistics_Ineq._46__2___h(0T_2)___1___h(2)____2___log2(724.0773439350247)_|_2_|_T.ID: -1 _2 +2 _0T_2  <= 19
 Statistics_Ineq._47__3___h(0T_2)___2___h(2)____3___log2(80.63494719327186)_|_3_|_T.ID: -2 _2 +3 _0T_2  <= 19
 Statistics_Ineq._48__4___h(0T_2)___3___h(2)____4___log2(26.908685288118864)_|_4_|_T.ID: -3 _2 +4 _0T_2  <= 19
 Statistics_Ineq._49__5___h(0T_2)___4___h(2)____5___log2(13.928809012737988)_|_5_|_T.ID: -4 _2 +5 _0T_2  <= 19
 Statistics_Ineq._50__6___h(0T_2)___5___h(2)____6___log2(8.979696386474982)_|_6_|_T.ID: -5 _2 +6 _0T_2  <= 19
 Statistics_Ineq._51__7___h(0T_2)___6___h(2)____7___log2(6.562682848061103)_|_7_|_T.ID: -6 _2 +7 _0T_2  <= 19
 Statistics_Ineq._52__8___h(0T_2)___7___h(2)____8___log2(5.187358218604039)_|_8_|_T.ID: -7 _2 +8 _0T_2  <= 19
 Statistics_Ineq._53__9___h(0T_2)___8___h(2)____9___log2(4.320238955569224)_|_9_|_T.ID: -8 _2 +9 _0T_2  <= 19
 Statistics_Ineq._54__10___h(0T_2)___9___h(2)____10___log2(3.73213196614723)_|_10_|_T.ID: -9 _2 +10 _0T_2  <= 19
 Statistics_Ineq._55__h(0T_2)___h(2)____log2(1.0)_|_inf_|_T.ID: -1 _2 +1 _0T_2  <= 0
Bounds
 0 <= _1
 0 <= _2
 0 <= _0K
 0 <= _0K_1
 0 <= _0MI
 0 <= _0MI_2
 0 <= _0MK
 0 <= _0MK_1_2
 0 <= _0T
 0 <= _0T_2
End
